%chk=pt3.chk
%mem=250GB
%nprocshared=4
#HF/6-31G* Opt=Z-matrix

frg5 HO--H oriented to N2

0 1
 C                 -1.67770000    0.29620000   -0.05060000
 N                 -0.38450000    0.33700000   -0.26550000
 C                  0.06640000    1.63730000   -0.16810000
 C                 -0.87500000    2.58380000    0.12790000
 S                 -2.42870000    1.84180000    0.26990000
 N                 -2.43830000   -0.85950000   -0.17950000
 H                  1.12190000    1.83970000   -0.31230000
 H                 -0.74460000    3.64690000    0.27690000
 H                 -1.83100000   -1.67320000   -0.22580000
 H                 -3.15770000   -0.97430000    0.52710000
 X     1       roh     6       90.     2         0.
 H     1       roh     6       90.    11       -90.
 O    12    0.9572    11      135.     1       180.
 H    13    0.9572    12    104.52    11   33.39377
 
 roh 2.1




